(set-option :produce-models true)
(define-fun s4 () (_ bitvec 1) #b0)
(define-fun s14 () (_ bitvec 1) (bvneg #b1))
(declare-fun s0 () (_ bitvec 64)) ; tracks user variable "x"
(declare-fun s1 () (_ bitvec 64)) ; tracks user variable "y"
(define-fun s2 () bool (not (bvsmul_noudfl s0 s1)))
(define-fun s3 () (_ bitvec 1) ((_ extract 63 63) s0))
(define-fun s5 () bool (distinct s3 s4))
(define-fun s6 () bool (= false s5))
(define-fun s7 () (_ bitvec 1) ((_ extract 63 63) s1))
(define-fun s8 () bool (distinct s4 s7))
(define-fun s9 () bool (= false s8))
(define-fun s10 () bool (and s6 s9))
(define-fun s11 () bool (and s5 s8))
(define-fun s12 () bool (or s10 s11))
(define-fun s13 () bool (not s12))
(define-fun s15 () (_ bitvec 1) (ite s6 s4 s14))
(define-fun s16 () (_ bitvec 65) (concat s15 s0))
(define-fun s17 () (_ bitvec 1) (ite s9 s4 s14))
(define-fun s18 () (_ bitvec 65) (concat s17 s1))
(define-fun s19 () (_ bitvec 65) (bvmul s16 s18))
(define-fun s20 () (_ bitvec 1) ((_ extract 64 64) s19))
(define-fun s21 () bool (distinct s4 s20))
(define-fun s22 () (_ bitvec 1) ((_ extract 63 63) s19))
(define-fun s23 () bool (distinct s4 s22))
(define-fun s24 () bool (xor s21 s23))
(define-fun s25 () (_ bitvec 1) ((_ extract 1 1) s0))
(define-fun s26 () bool (distinct s4 s25))
(define-fun s27 () bool (xor s5 s26))
(define-fun s28 () (_ bitvec 1) ((_ extract 2 2) s0))
(define-fun s29 () bool (distinct s4 s28))
(define-fun s30 () bool (xor s5 s29))
(define-fun s31 () (_ bitvec 1) ((_ extract 3 3) s0))
(define-fun s32 () bool (distinct s4 s31))
(define-fun s33 () bool (xor s5 s32))
(define-fun s34 () (_ bitvec 1) ((_ extract 4 4) s0))
(define-fun s35 () bool (distinct s4 s34))
(define-fun s36 () bool (xor s5 s35))
(define-fun s37 () (_ bitvec 1) ((_ extract 5 5) s0))
(define-fun s38 () bool (distinct s4 s37))
(define-fun s39 () bool (xor s5 s38))
(define-fun s40 () (_ bitvec 1) ((_ extract 6 6) s0))
(define-fun s41 () bool (distinct s4 s40))
(define-fun s42 () bool (xor s5 s41))
(define-fun s43 () (_ bitvec 1) ((_ extract 7 7) s0))
(define-fun s44 () bool (distinct s4 s43))
(define-fun s45 () bool (xor s5 s44))
(define-fun s46 () (_ bitvec 1) ((_ extract 8 8) s0))
(define-fun s47 () bool (distinct s4 s46))
(define-fun s48 () bool (xor s5 s47))
(define-fun s49 () (_ bitvec 1) ((_ extract 9 9) s0))
(define-fun s50 () bool (distinct s4 s49))
(define-fun s51 () bool (xor s5 s50))
(define-fun s52 () (_ bitvec 1) ((_ extract 10 10) s0))
(define-fun s53 () bool (distinct s4 s52))
(define-fun s54 () bool (xor s5 s53))
(define-fun s55 () (_ bitvec 1) ((_ extract 11 11) s0))
(define-fun s56 () bool (distinct s4 s55))
(define-fun s57 () bool (xor s5 s56))
(define-fun s58 () (_ bitvec 1) ((_ extract 12 12) s0))
(define-fun s59 () bool (distinct s4 s58))
(define-fun s60 () bool (xor s5 s59))
(define-fun s61 () (_ bitvec 1) ((_ extract 13 13) s0))
(define-fun s62 () bool (distinct s4 s61))
(define-fun s63 () bool (xor s5 s62))
(define-fun s64 () (_ bitvec 1) ((_ extract 14 14) s0))
(define-fun s65 () bool (distinct s4 s64))
(define-fun s66 () bool (xor s5 s65))
(define-fun s67 () (_ bitvec 1) ((_ extract 15 15) s0))
(define-fun s68 () bool (distinct s4 s67))
(define-fun s69 () bool (xor s5 s68))
(define-fun s70 () (_ bitvec 1) ((_ extract 16 16) s0))
(define-fun s71 () bool (distinct s4 s70))
(define-fun s72 () bool (xor s5 s71))
(define-fun s73 () (_ bitvec 1) ((_ extract 17 17) s0))
(define-fun s74 () bool (distinct s4 s73))
(define-fun s75 () bool (xor s5 s74))
(define-fun s76 () (_ bitvec 1) ((_ extract 18 18) s0))
(define-fun s77 () bool (distinct s4 s76))
(define-fun s78 () bool (xor s5 s77))
(define-fun s79 () (_ bitvec 1) ((_ extract 19 19) s0))
(define-fun s80 () bool (distinct s4 s79))
(define-fun s81 () bool (xor s5 s80))
(define-fun s82 () (_ bitvec 1) ((_ extract 20 20) s0))
(define-fun s83 () bool (distinct s4 s82))
(define-fun s84 () bool (xor s5 s83))
(define-fun s85 () (_ bitvec 1) ((_ extract 21 21) s0))
(define-fun s86 () bool (distinct s4 s85))
(define-fun s87 () bool (xor s5 s86))
(define-fun s88 () (_ bitvec 1) ((_ extract 22 22) s0))
(define-fun s89 () bool (distinct s4 s88))
(define-fun s90 () bool (xor s5 s89))
(define-fun s91 () (_ bitvec 1) ((_ extract 23 23) s0))
(define-fun s92 () bool (distinct s4 s91))
(define-fun s93 () bool (xor s5 s92))
(define-fun s94 () (_ bitvec 1) ((_ extract 24 24) s0))
(define-fun s95 () bool (distinct s4 s94))
(define-fun s96 () bool (xor s5 s95))
(define-fun s97 () (_ bitvec 1) ((_ extract 25 25) s0))
(define-fun s98 () bool (distinct s4 s97))
(define-fun s99 () bool (xor s5 s98))
(define-fun s100 () (_ bitvec 1) ((_ extract 26 26) s0))
(define-fun s101 () bool (distinct s4 s100))
(define-fun s102 () bool (xor s5 s101))
(define-fun s103 () (_ bitvec 1) ((_ extract 27 27) s0))
(define-fun s104 () bool (distinct s4 s103))
(define-fun s105 () bool (xor s5 s104))
(define-fun s106 () (_ bitvec 1) ((_ extract 28 28) s0))
(define-fun s107 () bool (distinct s4 s106))
(define-fun s108 () bool (xor s5 s107))
(define-fun s109 () (_ bitvec 1) ((_ extract 29 29) s0))
(define-fun s110 () bool (distinct s4 s109))
(define-fun s111 () bool (xor s5 s110))
(define-fun s112 () (_ bitvec 1) ((_ extract 30 30) s0))
(define-fun s113 () bool (distinct s4 s112))
(define-fun s114 () bool (xor s5 s113))
(define-fun s115 () (_ bitvec 1) ((_ extract 31 31) s0))
(define-fun s116 () bool (distinct s4 s115))
(define-fun s117 () bool (xor s5 s116))
(define-fun s118 () (_ bitvec 1) ((_ extract 32 32) s0))
(define-fun s119 () bool (distinct s4 s118))
(define-fun s120 () bool (xor s5 s119))
(define-fun s121 () (_ bitvec 1) ((_ extract 33 33) s0))
(define-fun s122 () bool (distinct s4 s121))
(define-fun s123 () bool (xor s5 s122))
(define-fun s124 () (_ bitvec 1) ((_ extract 34 34) s0))
(define-fun s125 () bool (distinct s4 s124))
(define-fun s126 () bool (xor s5 s125))
(define-fun s127 () (_ bitvec 1) ((_ extract 35 35) s0))
(define-fun s128 () bool (distinct s4 s127))
(define-fun s129 () bool (xor s5 s128))
(define-fun s130 () (_ bitvec 1) ((_ extract 36 36) s0))
(define-fun s131 () bool (distinct s4 s130))
(define-fun s132 () bool (xor s5 s131))
(define-fun s133 () (_ bitvec 1) ((_ extract 37 37) s0))
(define-fun s134 () bool (distinct s4 s133))
(define-fun s135 () bool (xor s5 s134))
(define-fun s136 () (_ bitvec 1) ((_ extract 38 38) s0))
(define-fun s137 () bool (distinct s4 s136))
(define-fun s138 () bool (xor s5 s137))
(define-fun s139 () (_ bitvec 1) ((_ extract 39 39) s0))
(define-fun s140 () bool (distinct s4 s139))
(define-fun s141 () bool (xor s5 s140))
(define-fun s142 () (_ bitvec 1) ((_ extract 40 40) s0))
(define-fun s143 () bool (distinct s4 s142))
(define-fun s144 () bool (xor s5 s143))
(define-fun s145 () (_ bitvec 1) ((_ extract 41 41) s0))
(define-fun s146 () bool (distinct s4 s145))
(define-fun s147 () bool (xor s5 s146))
(define-fun s148 () (_ bitvec 1) ((_ extract 42 42) s0))
(define-fun s149 () bool (distinct s4 s148))
(define-fun s150 () bool (xor s5 s149))
(define-fun s151 () (_ bitvec 1) ((_ extract 43 43) s0))
(define-fun s152 () bool (distinct s4 s151))
(define-fun s153 () bool (xor s5 s152))
(define-fun s154 () (_ bitvec 1) ((_ extract 44 44) s0))
(define-fun s155 () bool (distinct s4 s154))
(define-fun s156 () bool (xor s5 s155))
(define-fun s157 () (_ bitvec 1) ((_ extract 45 45) s0))
(define-fun s158 () bool (distinct s4 s157))
(define-fun s159 () bool (xor s5 s158))
(define-fun s160 () (_ bitvec 1) ((_ extract 46 46) s0))
(define-fun s161 () bool (distinct s4 s160))
(define-fun s162 () bool (xor s5 s161))
(define-fun s163 () (_ bitvec 1) ((_ extract 47 47) s0))
(define-fun s164 () bool (distinct s4 s163))
(define-fun s165 () bool (xor s5 s164))
(define-fun s166 () (_ bitvec 1) ((_ extract 48 48) s0))
(define-fun s167 () bool (distinct s4 s166))
(define-fun s168 () bool (xor s5 s167))
(define-fun s169 () (_ bitvec 1) ((_ extract 49 49) s0))
(define-fun s170 () bool (distinct s4 s169))
(define-fun s171 () bool (xor s5 s170))
(define-fun s172 () (_ bitvec 1) ((_ extract 50 50) s0))
(define-fun s173 () bool (distinct s4 s172))
(define-fun s174 () bool (xor s5 s173))
(define-fun s175 () (_ bitvec 1) ((_ extract 51 51) s0))
(define-fun s176 () bool (distinct s4 s175))
(define-fun s177 () bool (xor s5 s176))
(define-fun s178 () (_ bitvec 1) ((_ extract 52 52) s0))
(define-fun s179 () bool (distinct s4 s178))
(define-fun s180 () bool (xor s5 s179))
(define-fun s181 () (_ bitvec 1) ((_ extract 53 53) s0))
(define-fun s182 () bool (distinct s4 s181))
(define-fun s183 () bool (xor s5 s182))
(define-fun s184 () (_ bitvec 1) ((_ extract 54 54) s0))
(define-fun s185 () bool (distinct s4 s184))
(define-fun s186 () bool (xor s5 s185))
(define-fun s187 () (_ bitvec 1) ((_ extract 55 55) s0))
(define-fun s188 () bool (distinct s4 s187))
(define-fun s189 () bool (xor s5 s188))
(define-fun s190 () (_ bitvec 1) ((_ extract 56 56) s0))
(define-fun s191 () bool (distinct s4 s190))
(define-fun s192 () bool (xor s5 s191))
(define-fun s193 () (_ bitvec 1) ((_ extract 57 57) s0))
(define-fun s194 () bool (distinct s4 s193))
(define-fun s195 () bool (xor s5 s194))
(define-fun s196 () (_ bitvec 1) ((_ extract 58 58) s0))
(define-fun s197 () bool (distinct s4 s196))
(define-fun s198 () bool (xor s5 s197))
(define-fun s199 () (_ bitvec 1) ((_ extract 59 59) s0))
(define-fun s200 () bool (distinct s4 s199))
(define-fun s201 () bool (xor s5 s200))
(define-fun s202 () (_ bitvec 1) ((_ extract 60 60) s0))
(define-fun s203 () bool (distinct s4 s202))
(define-fun s204 () bool (xor s5 s203))
(define-fun s205 () (_ bitvec 1) ((_ extract 61 61) s0))
(define-fun s206 () bool (distinct s4 s205))
(define-fun s207 () bool (xor s5 s206))
(define-fun s208 () (_ bitvec 1) ((_ extract 62 62) s0))
(define-fun s209 () bool (distinct s4 s208))
(define-fun s210 () bool (xor s5 s209))
(define-fun s211 () bool (or s207 s210))
(define-fun s212 () bool (or s204 s211))
(define-fun s213 () bool (or s201 s212))
(define-fun s214 () bool (or s198 s213))
(define-fun s215 () bool (or s195 s214))
(define-fun s216 () bool (or s192 s215))
(define-fun s217 () bool (or s189 s216))
(define-fun s218 () bool (or s186 s217))
(define-fun s219 () bool (or s183 s218))
(define-fun s220 () bool (or s180 s219))
(define-fun s221 () bool (or s177 s220))
(define-fun s222 () bool (or s174 s221))
(define-fun s223 () bool (or s171 s222))
(define-fun s224 () bool (or s168 s223))
(define-fun s225 () bool (or s165 s224))
(define-fun s226 () bool (or s162 s225))
(define-fun s227 () bool (or s159 s226))
(define-fun s228 () bool (or s156 s227))
(define-fun s229 () bool (or s153 s228))
(define-fun s230 () bool (or s150 s229))
(define-fun s231 () bool (or s147 s230))
(define-fun s232 () bool (or s144 s231))
(define-fun s233 () bool (or s141 s232))
(define-fun s234 () bool (or s138 s233))
(define-fun s235 () bool (or s135 s234))
(define-fun s236 () bool (or s132 s235))
(define-fun s237 () bool (or s129 s236))
(define-fun s238 () bool (or s126 s237))
(define-fun s239 () bool (or s123 s238))
(define-fun s240 () bool (or s120 s239))
(define-fun s241 () bool (or s117 s240))
(define-fun s242 () bool (or s114 s241))
(define-fun s243 () bool (or s111 s242))
(define-fun s244 () bool (or s108 s243))
(define-fun s245 () bool (or s105 s244))
(define-fun s246 () bool (or s102 s245))
(define-fun s247 () bool (or s99 s246))
(define-fun s248 () bool (or s96 s247))
(define-fun s249 () bool (or s93 s248))
(define-fun s250 () bool (or s90 s249))
(define-fun s251 () bool (or s87 s250))
(define-fun s252 () bool (or s84 s251))
(define-fun s253 () bool (or s81 s252))
(define-fun s254 () bool (or s78 s253))
(define-fun s255 () bool (or s75 s254))
(define-fun s256 () bool (or s72 s255))
(define-fun s257 () bool (or s69 s256))
(define-fun s258 () bool (or s66 s257))
(define-fun s259 () bool (or s63 s258))
(define-fun s260 () bool (or s60 s259))
(define-fun s261 () bool (or s57 s260))
(define-fun s262 () bool (or s54 s261))
(define-fun s263 () bool (or s51 s262))
(define-fun s264 () bool (or s48 s263))
(define-fun s265 () bool (or s45 s264))
(define-fun s266 () bool (or s42 s265))
(define-fun s267 () bool (or s39 s266))
(define-fun s268 () bool (or s36 s267))
(define-fun s269 () bool (or s33 s268))
(define-fun s270 () bool (or s30 s269))
(define-fun s271 () bool (or s27 s270))
(define-fun s272 () (_ bitvec 1) ((_ extract 62 62) s1))
(define-fun s273 () bool (distinct s4 s272))
(define-fun s274 () bool (xor s8 s273))
(define-fun s275 () bool (and s271 s274))
(define-fun s276 () (_ bitvec 1) ((_ extract 61 61) s1))
(define-fun s277 () bool (distinct s4 s276))
(define-fun s278 () bool (xor s8 s277))
(define-fun s279 () bool (and s270 s278))
(define-fun s280 () (_ bitvec 1) ((_ extract 60 60) s1))
(define-fun s281 () bool (distinct s4 s280))
(define-fun s282 () bool (xor s8 s281))
(define-fun s283 () bool (and s269 s282))
(define-fun s284 () (_ bitvec 1) ((_ extract 59 59) s1))
(define-fun s285 () bool (distinct s4 s284))
(define-fun s286 () bool (xor s8 s285))
(define-fun s287 () bool (and s268 s286))
(define-fun s288 () (_ bitvec 1) ((_ extract 58 58) s1))
(define-fun s289 () bool (distinct s4 s288))
(define-fun s290 () bool (xor s8 s289))
(define-fun s291 () bool (and s267 s290))
(define-fun s292 () (_ bitvec 1) ((_ extract 57 57) s1))
(define-fun s293 () bool (distinct s4 s292))
(define-fun s294 () bool (xor s8 s293))
(define-fun s295 () bool (and s266 s294))
(define-fun s296 () (_ bitvec 1) ((_ extract 56 56) s1))
(define-fun s297 () bool (distinct s4 s296))
(define-fun s298 () bool (xor s8 s297))
(define-fun s299 () bool (and s265 s298))
(define-fun s300 () (_ bitvec 1) ((_ extract 55 55) s1))
(define-fun s301 () bool (distinct s4 s300))
(define-fun s302 () bool (xor s8 s301))
(define-fun s303 () bool (and s264 s302))
(define-fun s304 () (_ bitvec 1) ((_ extract 54 54) s1))
(define-fun s305 () bool (distinct s4 s304))
(define-fun s306 () bool (xor s8 s305))
(define-fun s307 () bool (and s263 s306))
(define-fun s308 () (_ bitvec 1) ((_ extract 53 53) s1))
(define-fun s309 () bool (distinct s4 s308))
(define-fun s310 () bool (xor s8 s309))
(define-fun s311 () bool (and s262 s310))
(define-fun s312 () (_ bitvec 1) ((_ extract 52 52) s1))
(define-fun s313 () bool (distinct s4 s312))
(define-fun s314 () bool (xor s8 s313))
(define-fun s315 () bool (and s261 s314))
(define-fun s316 () (_ bitvec 1) ((_ extract 51 51) s1))
(define-fun s317 () bool (distinct s4 s316))
(define-fun s318 () bool (xor s8 s317))
(define-fun s319 () bool (and s260 s318))
(define-fun s320 () (_ bitvec 1) ((_ extract 50 50) s1))
(define-fun s321 () bool (distinct s4 s320))
(define-fun s322 () bool (xor s8 s321))
(define-fun s323 () bool (and s259 s322))
(define-fun s324 () (_ bitvec 1) ((_ extract 49 49) s1))
(define-fun s325 () bool (distinct s4 s324))
(define-fun s326 () bool (xor s8 s325))
(define-fun s327 () bool (and s258 s326))
(define-fun s328 () (_ bitvec 1) ((_ extract 48 48) s1))
(define-fun s329 () bool (distinct s4 s328))
(define-fun s330 () bool (xor s8 s329))
(define-fun s331 () bool (and s257 s330))
(define-fun s332 () (_ bitvec 1) ((_ extract 47 47) s1))
(define-fun s333 () bool (distinct s4 s332))
(define-fun s334 () bool (xor s8 s333))
(define-fun s335 () bool (and s256 s334))
(define-fun s336 () (_ bitvec 1) ((_ extract 46 46) s1))
(define-fun s337 () bool (distinct s4 s336))
(define-fun s338 () bool (xor s8 s337))
(define-fun s339 () bool (and s255 s338))
(define-fun s340 () (_ bitvec 1) ((_ extract 45 45) s1))
(define-fun s341 () bool (distinct s4 s340))
(define-fun s342 () bool (xor s8 s341))
(define-fun s343 () bool (and s254 s342))
(define-fun s344 () (_ bitvec 1) ((_ extract 44 44) s1))
(define-fun s345 () bool (distinct s4 s344))
(define-fun s346 () bool (xor s8 s345))
(define-fun s347 () bool (and s253 s346))
(define-fun s348 () (_ bitvec 1) ((_ extract 43 43) s1))
(define-fun s349 () bool (distinct s4 s348))
(define-fun s350 () bool (xor s8 s349))
(define-fun s351 () bool (and s252 s350))
(define-fun s352 () (_ bitvec 1) ((_ extract 42 42) s1))
(define-fun s353 () bool (distinct s4 s352))
(define-fun s354 () bool (xor s8 s353))
(define-fun s355 () bool (and s251 s354))
(define-fun s356 () (_ bitvec 1) ((_ extract 41 41) s1))
(define-fun s357 () bool (distinct s4 s356))
(define-fun s358 () bool (xor s8 s357))
(define-fun s359 () bool (and s250 s358))
(define-fun s360 () (_ bitvec 1) ((_ extract 40 40) s1))
(define-fun s361 () bool (distinct s4 s360))
(define-fun s362 () bool (xor s8 s361))
(define-fun s363 () bool (and s249 s362))
(define-fun s364 () (_ bitvec 1) ((_ extract 39 39) s1))
(define-fun s365 () bool (distinct s4 s364))
(define-fun s366 () bool (xor s8 s365))
(define-fun s367 () bool (and s248 s366))
(define-fun s368 () (_ bitvec 1) ((_ extract 38 38) s1))
(define-fun s369 () bool (distinct s4 s368))
(define-fun s370 () bool (xor s8 s369))
(define-fun s371 () bool (and s247 s370))
(define-fun s372 () (_ bitvec 1) ((_ extract 37 37) s1))
(define-fun s373 () bool (distinct s4 s372))
(define-fun s374 () bool (xor s8 s373))
(define-fun s375 () bool (and s246 s374))
(define-fun s376 () (_ bitvec 1) ((_ extract 36 36) s1))
(define-fun s377 () bool (distinct s4 s376))
(define-fun s378 () bool (xor s8 s377))
(define-fun s379 () bool (and s245 s378))
(define-fun s380 () (_ bitvec 1) ((_ extract 35 35) s1))
(define-fun s381 () bool (distinct s4 s380))
(define-fun s382 () bool (xor s8 s381))
(define-fun s383 () bool (and s244 s382))
(define-fun s384 () (_ bitvec 1) ((_ extract 34 34) s1))
(define-fun s385 () bool (distinct s4 s384))
(define-fun s386 () bool (xor s8 s385))
(define-fun s387 () bool (and s243 s386))
(define-fun s388 () (_ bitvec 1) ((_ extract 33 33) s1))
(define-fun s389 () bool (distinct s4 s388))
(define-fun s390 () bool (xor s8 s389))
(define-fun s391 () bool (and s242 s390))
(define-fun s392 () (_ bitvec 1) ((_ extract 32 32) s1))
(define-fun s393 () bool (distinct s4 s392))
(define-fun s394 () bool (xor s8 s393))
(define-fun s395 () bool (and s241 s394))
(define-fun s396 () (_ bitvec 1) ((_ extract 31 31) s1))
(define-fun s397 () bool (distinct s4 s396))
(define-fun s398 () bool (xor s8 s397))
(define-fun s399 () bool (and s240 s398))
(define-fun s400 () (_ bitvec 1) ((_ extract 30 30) s1))
(define-fun s401 () bool (distinct s4 s400))
(define-fun s402 () bool (xor s8 s401))
(define-fun s403 () bool (and s239 s402))
(define-fun s404 () (_ bitvec 1) ((_ extract 29 29) s1))
(define-fun s405 () bool (distinct s4 s404))
(define-fun s406 () bool (xor s8 s405))
(define-fun s407 () bool (and s238 s406))
(define-fun s408 () (_ bitvec 1) ((_ extract 28 28) s1))
(define-fun s409 () bool (distinct s4 s408))
(define-fun s410 () bool (xor s8 s409))
(define-fun s411 () bool (and s237 s410))
(define-fun s412 () (_ bitvec 1) ((_ extract 27 27) s1))
(define-fun s413 () bool (distinct s4 s412))
(define-fun s414 () bool (xor s8 s413))
(define-fun s415 () bool (and s236 s414))
(define-fun s416 () (_ bitvec 1) ((_ extract 26 26) s1))
(define-fun s417 () bool (distinct s4 s416))
(define-fun s418 () bool (xor s8 s417))
(define-fun s419 () bool (and s235 s418))
(define-fun s420 () (_ bitvec 1) ((_ extract 25 25) s1))
(define-fun s421 () bool (distinct s4 s420))
(define-fun s422 () bool (xor s8 s421))
(define-fun s423 () bool (and s234 s422))
(define-fun s424 () (_ bitvec 1) ((_ extract 24 24) s1))
(define-fun s425 () bool (distinct s4 s424))
(define-fun s426 () bool (xor s8 s425))
(define-fun s427 () bool (and s233 s426))
(define-fun s428 () (_ bitvec 1) ((_ extract 23 23) s1))
(define-fun s429 () bool (distinct s4 s428))
(define-fun s430 () bool (xor s8 s429))
(define-fun s431 () bool (and s232 s430))
(define-fun s432 () (_ bitvec 1) ((_ extract 22 22) s1))
(define-fun s433 () bool (distinct s4 s432))
(define-fun s434 () bool (xor s8 s433))
(define-fun s435 () bool (and s231 s434))
(define-fun s436 () (_ bitvec 1) ((_ extract 21 21) s1))
(define-fun s437 () bool (distinct s4 s436))
(define-fun s438 () bool (xor s8 s437))
(define-fun s439 () bool (and s230 s438))
(define-fun s440 () (_ bitvec 1) ((_ extract 20 20) s1))
(define-fun s441 () bool (distinct s4 s440))
(define-fun s442 () bool (xor s8 s441))
(define-fun s443 () bool (and s229 s442))
(define-fun s444 () (_ bitvec 1) ((_ extract 19 19) s1))
(define-fun s445 () bool (distinct s4 s444))
(define-fun s446 () bool (xor s8 s445))
(define-fun s447 () bool (and s228 s446))
(define-fun s448 () (_ bitvec 1) ((_ extract 18 18) s1))
(define-fun s449 () bool (distinct s4 s448))
(define-fun s450 () bool (xor s8 s449))
(define-fun s451 () bool (and s227 s450))
(define-fun s452 () (_ bitvec 1) ((_ extract 17 17) s1))
(define-fun s453 () bool (distinct s4 s452))
(define-fun s454 () bool (xor s8 s453))
(define-fun s455 () bool (and s226 s454))
(define-fun s456 () (_ bitvec 1) ((_ extract 16 16) s1))
(define-fun s457 () bool (distinct s4 s456))
(define-fun s458 () bool (xor s8 s457))
(define-fun s459 () bool (and s225 s458))
(define-fun s460 () (_ bitvec 1) ((_ extract 15 15) s1))
(define-fun s461 () bool (distinct s4 s460))
(define-fun s462 () bool (xor s8 s461))
(define-fun s463 () bool (and s224 s462))
(define-fun s464 () (_ bitvec 1) ((_ extract 14 14) s1))
(define-fun s465 () bool (distinct s4 s464))
(define-fun s466 () bool (xor s8 s465))
(define-fun s467 () bool (and s223 s466))
(define-fun s468 () (_ bitvec 1) ((_ extract 13 13) s1))
(define-fun s469 () bool (distinct s4 s468))
(define-fun s470 () bool (xor s8 s469))
(define-fun s471 () bool (and s222 s470))
(define-fun s472 () (_ bitvec 1) ((_ extract 12 12) s1))
(define-fun s473 () bool (distinct s4 s472))
(define-fun s474 () bool (xor s8 s473))
(define-fun s475 () bool (and s221 s474))
(define-fun s476 () (_ bitvec 1) ((_ extract 11 11) s1))
(define-fun s477 () bool (distinct s4 s476))
(define-fun s478 () bool (xor s8 s477))
(define-fun s479 () bool (and s220 s478))
(define-fun s480 () (_ bitvec 1) ((_ extract 10 10) s1))
(define-fun s481 () bool (distinct s4 s480))
(define-fun s482 () bool (xor s8 s481))
(define-fun s483 () bool (and s219 s482))
(define-fun s484 () (_ bitvec 1) ((_ extract 9 9) s1))
(define-fun s485 () bool (distinct s4 s484))
(define-fun s486 () bool (xor s8 s485))
(define-fun s487 () bool (and s218 s486))
(define-fun s488 () (_ bitvec 1) ((_ extract 8 8) s1))
(define-fun s489 () bool (distinct s4 s488))
(define-fun s490 () bool (xor s8 s489))
(define-fun s491 () bool (and s217 s490))
(define-fun s492 () (_ bitvec 1) ((_ extract 7 7) s1))
(define-fun s493 () bool (distinct s4 s492))
(define-fun s494 () bool (xor s8 s493))
(define-fun s495 () bool (and s216 s494))
(define-fun s496 () (_ bitvec 1) ((_ extract 6 6) s1))
(define-fun s497 () bool (distinct s4 s496))
(define-fun s498 () bool (xor s8 s497))
(define-fun s499 () bool (and s215 s498))
(define-fun s500 () (_ bitvec 1) ((_ extract 5 5) s1))
(define-fun s501 () bool (distinct s4 s500))
(define-fun s502 () bool (xor s8 s501))
(define-fun s503 () bool (and s214 s502))
(define-fun s504 () (_ bitvec 1) ((_ extract 4 4) s1))
(define-fun s505 () bool (distinct s4 s504))
(define-fun s506 () bool (xor s8 s505))
(define-fun s507 () bool (and s213 s506))
(define-fun s508 () (_ bitvec 1) ((_ extract 3 3) s1))
(define-fun s509 () bool (distinct s4 s508))
(define-fun s510 () bool (xor s8 s509))
(define-fun s511 () bool (and s212 s510))
(define-fun s512 () (_ bitvec 1) ((_ extract 2 2) s1))
(define-fun s513 () bool (distinct s4 s512))
(define-fun s514 () bool (xor s8 s513))
(define-fun s515 () bool (and s211 s514))
(define-fun s516 () (_ bitvec 1) ((_ extract 1 1) s1))
(define-fun s517 () bool (distinct s4 s516))
(define-fun s518 () bool (xor s8 s517))
(define-fun s519 () bool (and s210 s518))
(define-fun s520 () bool (or s515 s519))
(define-fun s521 () bool (or s511 s520))
(define-fun s522 () bool (or s507 s521))
(define-fun s523 () bool (or s503 s522))
(define-fun s524 () bool (or s499 s523))
(define-fun s525 () bool (or s495 s524))
(define-fun s526 () bool (or s491 s525))
(define-fun s527 () bool (or s487 s526))
(define-fun s528 () bool (or s483 s527))
(define-fun s529 () bool (or s479 s528))
(define-fun s530 () bool (or s475 s529))
(define-fun s531 () bool (or s471 s530))
(define-fun s532 () bool (or s467 s531))
(define-fun s533 () bool (or s463 s532))
(define-fun s534 () bool (or s459 s533))
(define-fun s535 () bool (or s455 s534))
(define-fun s536 () bool (or s451 s535))
(define-fun s537 () bool (or s447 s536))
(define-fun s538 () bool (or s443 s537))
(define-fun s539 () bool (or s439 s538))
(define-fun s540 () bool (or s435 s539))
(define-fun s541 () bool (or s431 s540))
(define-fun s542 () bool (or s427 s541))
(define-fun s543 () bool (or s423 s542))
(define-fun s544 () bool (or s419 s543))
(define-fun s545 () bool (or s415 s544))
(define-fun s546 () bool (or s411 s545))
(define-fun s547 () bool (or s407 s546))
(define-fun s548 () bool (or s403 s547))
(define-fun s549 () bool (or s399 s548))
(define-fun s550 () bool (or s395 s549))
(define-fun s551 () bool (or s391 s550))
(define-fun s552 () bool (or s387 s551))
(define-fun s553 () bool (or s383 s552))
(define-fun s554 () bool (or s379 s553))
(define-fun s555 () bool (or s375 s554))
(define-fun s556 () bool (or s371 s555))
(define-fun s557 () bool (or s367 s556))
(define-fun s558 () bool (or s363 s557))
(define-fun s559 () bool (or s359 s558))
(define-fun s560 () bool (or s355 s559))
(define-fun s561 () bool (or s351 s560))
(define-fun s562 () bool (or s347 s561))
(define-fun s563 () bool (or s343 s562))
(define-fun s564 () bool (or s339 s563))
(define-fun s565 () bool (or s335 s564))
(define-fun s566 () bool (or s331 s565))
(define-fun s567 () bool (or s327 s566))
(define-fun s568 () bool (or s323 s567))
(define-fun s569 () bool (or s319 s568))
(define-fun s570 () bool (or s315 s569))
(define-fun s571 () bool (or s311 s570))
(define-fun s572 () bool (or s307 s571))
(define-fun s573 () bool (or s303 s572))
(define-fun s574 () bool (or s299 s573))
(define-fun s575 () bool (or s295 s574))
(define-fun s576 () bool (or s291 s575))
(define-fun s577 () bool (or s287 s576))
(define-fun s578 () bool (or s283 s577))
(define-fun s579 () bool (or s279 s578))
(define-fun s580 () bool (or s275 s579))
(define-fun s581 () bool (or s24 s580))
(define-fun s582 () bool (and s13 s581))
(define-fun s583 () bool (= s2 s582))
(assert (not s583))
(check-sat)